20
75.0
0 19 7.94 4.04
1 18 8.84 3.21
2 17 7.66 3.4
3 16 9.15 3.73
4 15 6.87 6.79
5 14 9.14 7.09
6 13 8.81 4.21
7 12 9.13 4.35
8 11 8.31 4.63
9 10 8.85 5.93
10 9 11.72 7.43
11 8 6.85 7.73
12 7 11.24 5.61
13 6 12.37 6.28
14 5 10.53 8.59
15 4 13.3 8.62
16 3 4.21 2.56
17 2 6.89 7.79
18 1 7.87 10.01
